41
150
105	1
104	1
102	1
100	1
96	1
94	1
88	1
87	3
85	2
84	1
83	1
82	2
79	1
78	2
74	1
71	1
69	1
68	2
66	1
64	1
63	2
62	1
61	1
58	1
57	2
56	1
55	1
54	1
53	1
52	1
51	1
48	1
47	1
42	1
39	1
38	2
36	1
34	1
33	1
32	1
31	1
